Data path: /scratch/opt/lxu/CFLG/benchmarks/random_A
Instance: r_15_0.4_45.txt
Result path: /scratch/opt/lxu/CFLG/results/random_A
Solver: Gurobi
Time limit: 7200
Formulation: LEFP
Cover: Small
julia --project=. src/main.jl /scratch/opt/lxu/CFLG/benchmarks/random_A r_15_0.4_45.txt /scratch/opt/lxu/CFLG/results/random_A Gurobi 7200 LEFP Small
The latest version of Julia in the `release` channel is 1.11.5+0.x64.linux.gnu. You currently have `1.11.4+0.x64.linux.gnu` installed. Run:

  juliaup update

in your terminal shell to install Julia 1.11.5+0.x64.linux.gnu and update the `release` channel to that version.
/scratch/opt/lxu/CFLG/benchmarks/random_A Gurobi 7200.0 /scratch/opt/lxu/CFLG/results/random_A r_15_0.4_45.txt LEFP Small
/scratch/opt/lxu/CFLG/benchmarks/random_A/r_15_0.4_45.txt

 read graph
data loaded


after absorb:15 15

max_piece:6
problem_graph/original graph: node: 19/15 edge: 49/45 dlt: 0.1687364095099824 break_avg_len: 0.619848034934629 break_max_len: 0.9953368121261363Set parameter TokenServer to value "solice01.zib.de"
Set parameter Threads to value 1
Set parameter OutputFlag to value 1
Gurobi Optimizer version 12.0.1 build v12.0.1rc0 (linux64 - "Debian GNU/Linux 12 (bookworm)")

CPU model: Intel(R) Xeon(R) Gold 5122 CPU @ 3.60GHz, instruction set [SSE2|AVX|AVX2|AVX512]
Thread count: 8 physical cores, 16 logical processors, using up to 1 threads

Non-default parameters:
Threads  1

Optimize a model with 68 rows, 147 columns and 245 nonzeros
Model fingerprint: 0xb72b61b8
Coefficient statistics:
  Matrix range     [1e+00, 1e+00]
  Objective range  [1e+00, 1e+00]
  Bounds range     [1e+00, 1e+00]
  RHS range        [0e+00, 0e+00]
Presolve removed 68 rows and 147 columns
Presolve time: 0.00s
Presolve: All rows and columns removed
Iteration    Objective       Primal Inf.    Dual Inf.      Time
       0   -0.0000000e+00   0.000000e+00   0.000000e+00      0s

Solved in 0 iterations and 0.00 seconds (0.00 work units)
Optimal objective -0.000000000e+00

User-callback calls 36, time in user-callback 0.01 sec
elapsed CPU time: 1.271619 seconds
Set parameter TokenServer to value "solice01.zib.de"
Set parameter Threads to value 1
Set parameter OutputFlag to value 1
Set parameter MIPGap to value 0.0001
Set parameter MIPGapAbs to value 1
Set parameter TimeLimit to value 7198.728381

 more cuts:falsefalse
0 0
formulation:LEFP41 8 4

 model loaded

Gurobi Optimizer version 12.0.1 build v12.0.1rc0 (linux64 - "Debian GNU/Linux 12 (bookworm)")

CPU model: Intel(R) Xeon(R) Gold 5122 CPU @ 3.60GHz, instruction set [SSE2|AVX|AVX2|AVX512]
Thread count: 8 physical cores, 16 logical processors, using up to 1 threads

Non-default parameters:
TimeLimit  7198.728381
MIPGapAbs  1
Threads  1

Optimize a model with 777 rows, 457 columns and 1674 nonzeros
Model fingerprint: 0x3101564a
Variable types: 117 continuous, 340 integer (340 binary)
Coefficient statistics:
  Matrix range     [1e-02, 1e+00]
  Objective range  [1e+00, 1e+00]
  Bounds range     [1e-01, 1e+00]
  RHS range        [6e-03, 1e+00]
Found heuristic solution: objective 98.0000000
Presolve removed 451 rows and 160 columns
Presolve time: 0.01s
Presolved: 326 rows, 297 columns, 1326 nonzeros
Variable types: 109 continuous, 188 integer (188 binary)

Root relaxation: objective 6.600000e+01, 179 iterations, 0.00 seconds (0.00 work units)

    Nodes    |    Current Node    |     Objective Bounds      |     Work
 Expl Unexpl |  Obj  Depth IntInf | Incumbent    BestBd   Gap | It/Node Time

     0     0   66.00000    0   43   98.00000   66.00000  32.7%     -    0s
H    0     0                      79.0000000   66.00000  16.5%     -    0s
H    0     0                      78.0000000   66.00000  15.4%     -    0s
     0     0   66.06836    0   53   78.00000   66.06836  15.3%     -    0s
H    0     0                      76.0000000   66.15307  13.0%     -    0s
     0     0   66.15307    0   51   76.00000   66.15307  13.0%     -    0s
     0     0   68.12539    0   69   76.00000   68.12539  10.4%     -    0s
     0     0   68.65707    0   66   76.00000   68.65707  9.66%     -    0s
     0     0   68.70589    0   64   76.00000   68.70589  9.60%     -    0s
     0     0   69.43485    0   68   76.00000   69.43485  8.64%     -    0s
H    0     0                      75.0000000   69.48555  7.35%     -    0s
     0     0   69.53019    0   68   75.00000   69.53019  7.29%     -    0s
     0     0   69.53194    0   73   75.00000   69.53194  7.29%     -    0s
     0     0   70.16913    0   65   75.00000   70.16913  6.44%     -    0s
     0     0   70.17679    0   69   75.00000   70.17679  6.43%     -    0s
     0     0   70.18014    0   73   75.00000   70.18014  6.43%     -    0s
     0     0   70.18072    0   70   75.00000   70.18072  6.43%     -    0s
     0     0   70.23485    0   77   75.00000   70.23485  6.35%     -    0s
     0     0   70.25088    0   78   75.00000   70.25088  6.33%     -    0s
     0     0   70.25185    0   79   75.00000   70.25185  6.33%     -    0s
     0     0   70.29758    0   80   75.00000   70.29758  6.27%     -    0s
     0     0   70.31613    0   89   75.00000   70.31613  6.25%     -    0s
     0     0   70.31613    0   88   75.00000   70.31613  6.25%     -    0s
     0     0   70.34819    0   77   75.00000   70.34819  6.20%     -    0s
     0     0   70.35739    0   74   75.00000   70.35739  6.19%     -    0s
     0     0   70.35739    0   77   75.00000   70.35739  6.19%     -    0s
     0     0   70.38533    0   81   75.00000   70.38533  6.15%     -    0s
     0     0   70.42976    0   77   75.00000   70.42976  6.09%     -    0s
     0     0   70.42976    0   78   75.00000   70.42976  6.09%     -    0s
     0     0   70.42976    0   80   75.00000   70.42976  6.09%     -    0s
     0     0   70.44124    0   77   75.00000   70.44124  6.08%     -    0s
     0     2   70.44124    0   70   75.00000   70.44124  6.08%     -    0s
H   27    27                      74.0000000   70.44124  4.81%  27.9    0s

Cutting planes:
  Gomory: 8
  Cover: 136
  Implied bound: 8
  Clique: 1
  MIR: 37
  Flow cover: 86
  GUB cover: 11
  Inf proof: 1
  Zero half: 25
  RLT: 18
  Relax-and-lift: 3
  BQP: 8

Explored 3996 nodes (114374 simplex iterations) in 4.80 seconds (3.23 work units)
Thread count was 1 (of 16 available processors)

Solution count 7: 74 74 75 ... 98

Optimal solution found (tolerance 1.00e-04)
Best objective 7.400000000000e+01, best bound 7.300000000000e+01, gap 1.3514%

User-callback calls 10394, time in user-callback 0.01 sec

 sepatime0
74.0Stat(MathOptInterface.OPTIMAL, 74.0, 73.00000000000001, 0.013513513513513322, 0.0, 1.271619, 4.804802179336548, 3996, Main.CFLG.LEFP, "", #undef)
